70
1 0 1
2 0 1
2 1 1
3 0 1
3 1 1
4 1 1
4 3 1
5 2 1
5 3 1
6 3 1
6 4 1
7 2 1
7 3 1
7 6 1
8 1 1
8 3 1
8 4 1
8 5 1
9 3 1
9 7 1
9 8 1
10 1 1
10 2 1
10 3 1
10 4 1
10 6 1
10 9 1
11 3 1
11 4 1
11 7 1
11 10 1
12 2 1
12 5 1
12 7 1
12 10 1
12 11 1
13 0 1
13 1 1
13 4 1
13 9 1
13 11 1
14 0 1
14 1 1
14 2 1
14 5 1
14 8 1
14 9 1
14 12 1
14 13 1
15 1 1
15 2 1
15 4 1
15 6 1
15 7 1
15 8 1
15 9 1
15 10 1
15 12 1
16 0 1
16 1 1
16 3 1
16 8 1
16 12 1
17 2 1
17 5 1
17 6 1
17 7 1
17 8 1
17 9 1
17 10 1
17 16 1
18 3 1
18 7 1
18 8 1
18 9 1
18 12 1
18 17 1
19 0 1
19 4 1
19 5 1
19 7 1
19 11 1
19 13 1
19 14 1
19 16 1
19 17 1
19 18 1
20 2 1
20 6 1
20 7 1
20 10 1
20 12 1
20 16 1
20 17 1
20 18 1
21 0 1
21 2 1
21 6 1
21 8 1
21 12 1
21 13 1
21 15 1
21 17 1
21 18 1
21 19 1
22 1 1
22 5 1
22 6 1
22 8 1
22 13 1
22 15 1
22 16 1
22 17 1
22 18 1
22 19 1
23 0 1
23 2 1
23 3 1
23 6 1
23 7 1
23 10 1
23 13 1
23 14 1
23 17 1
23 19 1
23 20 1
23 21 1
24 2 1
24 5 1
24 10 1
24 12 1
24 13 1
24 14 1
24 15 1
24 17 1
24 18 1
24 19 1
24 20 1
24 21 1
25 2 1
25 3 1
25 4 1
25 8 1
25 10 1
25 18 1
25 19 1
25 20 1
26 2 1
26 3 1
26 4 1
26 5 1
26 6 1
26 7 1
26 13 1
26 16 1
26 17 1
26 18 1
26 20 1
26 22 1
26 24 1
27 0 1
27 1 1
27 2 1
27 3 1
27 6 1
27 8 1
27 12 1
27 13 1
27 14 1
27 15 1
27 17 1
27 20 1
27 23 1
27 24 1
27 26 1
28 1 1
28 3 1
28 6 1
28 8 1
28 9 1
28 11 1
28 13 1
28 17 1
28 19 1
28 20 1
28 21 1
28 25 1
28 26 1
29 0 1
29 5 1
29 8 1
29 9 1
29 14 1
29 15 1
29 16 1
29 17 1
29 19 1
29 22 1
29 23 1
29 24 1
29 26 1
29 27 1
30 1 1
30 3 1
30 8 1
30 9 1
30 10 1
30 14 1
30 15 1
30 18 1
30 20 1
30 21 1
30 22 1
30 23 1
30 25 1
30 29 1
31 0 1
31 2 1
31 3 1
31 5 1
31 8 1
31 11 1
31 13 1
31 14 1
31 15 1
31 18 1
31 19 1
31 20 1
31 23 1
31 24 1
31 25 1
31 26 1
31 27 1
31 28 1
32 0 1
32 5 1
32 7 1
32 8 1
32 10 1
32 11 1
32 13 1
32 14 1
32 15 1
32 16 1
32 17 1
32 18 1
32 19 1
32 21 1
32 27 1
32 28 1
32 29 1
32 30 1
32 31 1
33 1 1
33 2 1
33 6 1
33 7 1
33 12 1
33 16 1
33 17 1
33 19 1
33 22 1
33 23 1
33 26 1
33 27 1
33 31 1
34 1 1
34 3 1
34 5 1
34 7 1
34 10 1
34 13 1
34 16 1
34 17 1
34 19 1
34 21 1
34 22 1
34 24 1
34 27 1
34 28 1
34 29 1
34 31 1
34 33 1
35 0 1
35 1 1
35 3 1
35 4 1
35 5 1
35 6 1
35 7 1
35 10 1
35 13 1
35 16 1
35 18 1
35 20 1
35 21 1
35 22 1
35 25 1
35 26 1
35 27 1
35 29 1
35 30 1
35 33 1
36 0 1
36 4 1
36 7 1
36 10 1
36 11 1
36 14 1
36 15 1
36 18 1
36 20 1
36 22 1
36 23 1
36 24 1
36 27 1
36 29 1
36 30 1
36 31 1
36 32 1
36 33 1
36 34 1
36 35 1
37 2 1
37 3 1
37 7 1
37 8 1
37 9 1
37 10 1
37 11 1
37 16 1
37 17 1
37 18 1
37 19 1
37 20 1
37 22 1
37 24 1
37 25 1
37 26 1
37 27 1
37 28 1
37 30 1
37 34 1
37 36 1
38 0 1
38 2 1
38 4 1
38 5 1
38 13 1
38 17 1
38 19 1
38 23 1
38 24 1
38 25 1
38 26 1
38 27 1
38 29 1
38 30 1
38 32 1
38 33 1
38 34 1
38 37 1
39 0 1
39 1 1
39 3 1
39 7 1
39 8 1
39 9 1
39 10 1
39 11 1
39 13 1
39 15 1
39 20 1
39 21 1
39 24 1
39 25 1
39 26 1
39 28 1
39 31 1
39 34 1
39 35 1
39 36 1
39 37 1
40 0 1
40 3 1
40 5 1
40 7 1
40 10 1
40 11 1
40 13 1
40 14 1
40 15 1
40 17 1
40 18 1
40 19 1
40 21 1
40 24 1
40 28 1
40 30 1
40 32 1
40 33 1
40 34 1
40 35 1
40 36 1
40 37 1
40 38 1
40 39 1
41 0 1
41 3 1
41 4 1
41 5 1
41 7 1
41 13 1
41 15 1
41 16 1
41 17 1
41 21 1
41 22 1
41 23 1
41 26 1
41 28 1
41 33 1
41 34 1
41 38 1
42 3 1
42 6 1
42 9 1
42 13 1
42 14 1
42 16 1
42 17 1
42 19 1
42 20 1
42 22 1
42 25 1
42 26 1
42 28 1
42 29 1
42 30 1
42 31 1
42 32 1
42 33 1
42 35 1
42 36 1
42 37 1
42 39 1
42 40 1
42 41 1
43 0 1
43 2 1
43 4 1
43 5 1
43 7 1
43 8 1
43 10 1
43 12 1
43 15 1
43 16 1
43 17 1
43 21 1
43 22 1
43 23 1
43 25 1
43 29 1
43 31 1
43 33 1
43 34 1
43 37 1
43 38 1
43 40 1
43 41 1
43 42 1
44 0 1
44 1 1
44 2 1
44 4 1
44 10 1
44 12 1
44 16 1
44 19 1
44 23 1
44 24 1
44 26 1
44 27 1
44 28 1
44 29 1
44 32 1
44 33 1
44 35 1
44 36 1
44 37 1
44 43 1
45 0 1
45 1 1
45 2 1
45 3 1
45 5 1
45 6 1
45 7 1
45 8 1
45 9 1
45 10 1
45 13 1
45 15 1
45 17 1
45 22 1
45 23 1
45 25 1
45 27 1
45 28 1
45 29 1
45 31 1
45 32 1
45 33 1
45 34 1
45 35 1
45 37 1
45 38 1
45 40 1
45 42 1
45 44 1
46 0 1
46 1 1
46 4 1
46 5 1
46 7 1
46 8 1
46 9 1
46 10 1
46 13 1
46 16 1
46 17 1
46 18 1
46 19 1
46 20 1
46 21 1
46 22 1
46 24 1
46 26 1
46 27 1
46 31 1
46 34 1
46 37 1
46 39 1
46 40 1
46 44 1
47 0 1
47 1 1
47 3 1
47 4 1
47 5 1
47 6 1
47 7 1
47 8 1
47 10 1
47 14 1
47 17 1
47 18 1
47 19 1
47 23 1
47 24 1
47 25 1
47 31 1
47 32 1
47 33 1
47 36 1
47 37 1
47 38 1
47 41 1
47 42 1
47 43 1
47 44 1
47 46 1
48 2 1
48 4 1
48 6 1
48 7 1
48 8 1
48 10 1
48 12 1
48 14 1
48 15 1
48 16 1
48 17 1
48 18 1
48 19 1
48 20 1
48 23 1
48 24 1
48 30 1
48 31 1
48 35 1
48 36 1
48 38 1
48 39 1
48 42 1
48 43 1
48 45 1
48 47 1
49 1 1
49 3 1
49 4 1
49 5 1
49 6 1
49 7 1
49 10 1
49 12 1
49 13 1
49 14 1
49 15 1
49 17 1
49 19 1
49 22 1
49 23 1
49 24 1
49 25 1
49 26 1
49 27 1
49 30 1
49 31 1
49 32 1
49 33 1
49 34 1
49 36 1
49 37 1
49 38 1
49 40 1
49 41 1
49 43 1
49 44 1
49 45 1
49 47 1
49 48 1
50 0 1
50 1 1
50 3 1
50 4 1
50 5 1
50 6 1
50 7 1
50 8 1
50 12 1
50 13 1
50 16 1
50 18 1
50 21 1
50 22 1
50 26 1
50 28 1
50 31 1
50 34 1
50 36 1
50 39 1
50 40 1
50 42 1
50 45 1
50 46 1
50 48 1
51 0 1
51 1 1
51 3 1
51 4 1
51 7 1
51 8 1
51 10 1
51 12 1
51 14 1
51 17 1
51 21 1
51 22 1
51 23 1
51 24 1
51 25 1
51 28 1
51 30 1
51 31 1
51 32 1
51 36 1
51 37 1
51 40 1
51 42 1
51 45 1
51 46 1
51 48 1
52 1 1
52 2 1
52 4 1
52 5 1
52 8 1
52 11 1
52 12 1
52 16 1
52 19 1
52 20 1
52 21 1
52 23 1
52 25 1
52 26 1
52 28 1
52 31 1
52 33 1
52 34 1
52 35 1
52 36 1
52 37 1
52 39 1
52 41 1
52 42 1
52 43 1
52 44 1
52 45 1
52 48 1
52 50 1
53 4 1
53 11 1
53 12 1
53 13 1
53 14 1
53 15 1
53 16 1
53 17 1
53 18 1
53 22 1
53 23 1
53 24 1
53 28 1
53 29 1
53 33 1
53 39 1
53 40 1
53 41 1
53 43 1
53 44 1
53 45 1
53 46 1
53 48 1
53 50 1
54 0 1
54 1 1
54 3 1
54 4 1
54 5 1
54 8 1
54 10 1
54 11 1
54 14 1
54 15 1
54 16 1
54 17 1
54 18 1
54 19 1
54 23 1
54 25 1
54 26 1
54 27 1
54 28 1
54 32 1
54 33 1
54 35 1
54 37 1
54 39 1
54 43 1
54 44 1
54 46 1
54 48 1
54 49 1
55 0 1
55 1 1
55 3 1
55 4 1
55 8 1
55 10 1
55 11 1
55 15 1
55 16 1
55 18 1
55 20 1
55 21 1
55 23 1
55 26 1
55 27 1
55 28 1
55 30 1
55 31 1
55 32 1
55 33 1
55 34 1
55 37 1
55 38 1
55 39 1
55 41 1
55 42 1
55 47 1
55 52 1
56 0 1
56 2 1
56 3 1
56 6 1
56 8 1
56 11 1
56 13 1
56 21 1
56 22 1
56 26 1
56 27 1
56 29 1
56 30 1
56 31 1
56 32 1
56 36 1
56 37 1
56 39 1
56 40 1
56 41 1
56 42 1
56 45 1
56 46 1
56 47 1
56 49 1
56 51 1
56 52 1
56 53 1
57 1 1
57 3 1
57 4 1
57 10 1
57 11 1
57 13 1
57 14 1
57 18 1
57 19 1
57 20 1
57 22 1
57 27 1
57 28 1
57 32 1
57 44 1
57 46 1
57 47 1
57 50 1
57 56 1
58 0 1
58 3 1
58 6 1
58 9 1
58 11 1
58 12 1
58 16 1
58 18 1
58 21 1
58 22 1
58 23 1
58 24 1
58 25 1
58 26 1
58 27 1
58 28 1
58 29 1
58 33 1
58 34 1
58 36 1
58 39 1
58 43 1
58 48 1
58 49 1
58 50 1
58 51 1
59 0 1
59 1 1
59 6 1
59 7 1
59 9 1
59 12 1
59 13 1
59 14 1
59 15 1
59 19 1
59 20 1
59 21 1
59 22 1
59 23 1
59 27 1
59 30 1
59 31 1
59 32 1
59 36 1
59 37 1
59 41 1
59 43 1
59 45 1
59 46 1
59 50 1
59 52 1
59 53 1
59 55 1
59 56 1
60 3 1
60 4 1
60 6 1
60 7 1
60 8 1
60 13 1
60 14 1
60 15 1
60 17 1
60 23 1
60 25 1
60 26 1
60 27 1
60 30 1
60 31 1
60 35 1
60 38 1
60 39 1
60 41 1
60 42 1
60 44 1
60 47 1
60 48 1
60 50 1
60 52 1
60 54 1
60 55 1
60 57 1
61 0 1
61 4 1
61 5 1
61 6 1
61 9 1
61 11 1
61 12 1
61 13 1
61 15 1
61 17 1
61 18 1
61 19 1
61 21 1
61 23 1
61 25 1
61 28 1
61 32 1
61 34 1
61 36 1
61 37 1
61 39 1
61 41 1
61 42 1
61 45 1
61 47 1
61 49 1
61 50 1
61 51 1
61 52 1
61 53 1
61 56 1
61 57 1
61 58 1
62 1 1
62 2 1
62 3 1
62 6 1
62 11 1
62 13 1
62 16 1
62 18 1
62 19 1
62 21 1
62 22 1
62 23 1
62 26 1
62 28 1
62 29 1
62 30 1
62 32 1
62 33 1
62 35 1
62 37 1
62 38 1
62 42 1
62 44 1
62 45 1
62 46 1
62 48 1
62 50 1
62 51 1
62 52 1
62 54 1
62 56 1
62 58 1
62 60 1
62 61 1
63 1 1
63 2 1
63 4 1
63 6 1
63 7 1
63 8 1
63 10 1
63 15 1
63 16 1
63 20 1
63 22 1
63 31 1
63 33 1
63 35 1
63 40 1
63 41 1
63 42 1
63 43 1
63 47 1
63 49 1
63 52 1
63 55 1
63 56 1
63 59 1
63 60 1
63 62 1
64 2 1
64 4 1
64 5 1
64 6 1
64 7 1
64 8 1
64 9 1
64 10 1
64 15 1
64 17 1
64 18 1
64 21 1
64 22 1
64 23 1
64 25 1
64 26 1
64 27 1
64 28 1
64 29 1
64 30 1
64 34 1
64 35 1
64 36 1
64 38 1
64 41 1
64 45 1
64 47 1
64 51 1
64 54 1
64 55 1
64 56 1
64 57 1
64 59 1
64 63 1
65 2 1
65 4 1
65 5 1
65 7 1
65 8 1
65 12 1
65 16 1
65 18 1
65 19 1
65 24 1
65 25 1
65 26 1
65 27 1
65 28 1
65 29 1
65 30 1
65 33 1
65 35 1
65 37 1
65 38 1
65 39 1
65 41 1
65 42 1
65 43 1
65 44 1
65 47 1
65 50 1
65 51 1
65 52 1
65 53 1
65 54 1
65 56 1
65 59 1
65 61 1
65 64 1
66 2 1
66 4 1
66 5 1
66 6 1
66 7 1
66 9 1
66 10 1
66 12 1
66 13 1
66 20 1
66 22 1
66 23 1
66 24 1
66 25 1
66 27 1
66 28 1
66 32 1
66 33 1
66 35 1
66 36 1
66 46 1
66 47 1
66 55 1
66 56 1
66 57 1
66 59 1
66 62 1
66 63 1
66 64 1
67 2 1
67 3 1
67 5 1
67 6 1
67 7 1
67 9 1
67 12 1
67 14 1
67 15 1
67 16 1
67 22 1
67 23 1
67 28 1
67 29 1
67 30 1
67 31 1
67 36 1
67 40 1
67 42 1
67 45 1
67 46 1
67 48 1
67 50 1
67 52 1
67 54 1
67 55 1
67 60 1
67 63 1
67 64 1
67 65 1
68 2 1
68 8 1
68 9 1
68 10 1
68 12 1
68 14 1
68 17 1
68 19 1
68 26 1
68 27 1
68 32 1
68 33 1
68 35 1
68 37 1
68 38 1
68 40 1
68 41 1
68 42 1
68 50 1
68 52 1
68 55 1
68 58 1
68 61 1
68 62 1
68 63 1
68 64 1
68 65 1
69 1 1
69 9 1
69 10 1
69 12 1
69 14 1
69 17 1
69 18 1
69 19 1
69 22 1
69 23 1
69 24 1
69 29 1
69 30 1
69 32 1
69 33 1
69 35 1
69 36 1
69 38 1
69 40 1
69 44 1
69 46 1
69 49 1
69 50 1
69 58 1
69 59 1
69 60 1
69 61 1
69 62 1
69 64 1
69 68 1
